c 
c MolecularSimulation 0.9.3
c Simulation written: Jan 13 2012 -- 15:17:57
c Test: Lipton
c Input: ./data/testCNF/SWEEP_R6_K3_N16_M96_S002.cnf
c 
s SATISFIABLE
v 1 2 -3 4 -5 6 -7 -8 -9 10 -11 12 -13 14 15 16 0
c algorithmTime:  9
c solutionMemory: 8
c mixCount:       402
c extractCount:   288
c appendCount:    32
c splitCount:     16
c spliceCount:    0
c purifyCount:    97
c 
